20
0 1 0.4 0.4
0 2 0.24 0.24
0 3 0.42 0.35
0 4 0.3 0.3
0 5 0.72 0.44
0 6 0.76 0.42
0 7 0.3 0.3
0 8 0.72 0.34
0 9 0.41 0.41
0 10 0.36 0.36
0 11 0.24 0.24
0 12 0.18 0.18
0 13 0.26 0.26
0 14 0.58 0.28
0 15 0.26 0.26
0 16 0.62 0.2
0 17 0.36 0.36
0 18 0.5 0.26
0 19 0.36 0.36
1 2 0.66 0.16
1 3 0.81 0.24
1 4 0.48 0.24
1 5 0.38 0.16
1 6 0.74 0.17
1 7 0.1 0.1
1 8 0.68 0.29
1 9 0.48 0.18
1 10 0.31 0.31
1 11 0.23 0.23
1 12 0.22 0.22
1 13 0.21 0.21
1 14 0.23 0.23
1 15 0.51 0.21
1 16 0.78 0.24
1 17 0.15 0.15
1 18 0.66 0.14
1 19 0.11 0.11
2 3 0.47 0.23
2 4 0.25 0.25
2 5 0.32 0.32
2 6 0.46 0.2
2 7 0.56 0.06
2 8 0.22 0.22
2 9 0.74 0.26
2 10 0.15 0.15
2 11 0.6 0.11
2 12 0.06 0.06
2 13 0.09 0.09
2 14 0.16 0.16
2 15 0.52 0.14
2 16 0.83 0.08
2 17 0.12 0.12
2 18 0.02 0.02
2 19 0.23 0.23
3 4 0.33 0.33
3 5 0.8 0.27
3 6 0.37 0.08
3 7 0.24 0.24
3 8 0.68 0.29
3 9 0.06 0.06
3 10 0.68 0.21
3 11 0.48 0.34
3 12 0.17 0.17
3 13 0.6 0.32
3 14 0.86 0.23
3 15 0.09 0.09
3 16 0.8 0.15
3 17 0.3 0.3
3 18 0.25 0.25
3 19 0.4 0.14
4 5 0.4 0.4
4 6 0.4 0.4
4 7 0.28 0.28
4 8 0.24 0.24
4 9 0.51 0.39
4 10 0.62 0.12
4 11 0.24 0.24
4 12 0.56 0.26
4 13 0.46 0.26
4 14 0.18 0.18
4 15 0.24 0.24
4 16 0.26 0.26
4 17 0.66 0.22
4 18 0.27 0.27
4 19 0.34 0.34
5 6 0.54 0.33
5 7 0.56 0.26
5 8 0.52 0.28
5 9 0.33 0.33
5 10 0.3 0.3
5 11 0.28 0.28
5 12 0.26 0.26
5 13 0.63 0.3
5 14 0.62 0.32
5 15 0.18 0.18
5 16 0.4 0.24
5 17 0.64 0.27
5 18 0.56 0.3
5 19 0.79 0.27
6 7 0.76 0.22
6 8 0.55 0.36
6 9 0.57 0.14
6 10 0.74 0.28
6 11 0.36 0.27
6 12 0.48 0.24
6 13 0.25 0.25
6 14 0.3 0.3
6 15 0.62 0.16
6 16 0.82 0.22
6 17 0.28 0.28
6 18 0.18 0.18
6 19 0.06 0.06
7 8 0.2 0.2
7 9 0.28 0.28
7 10 0.71 0.21
7 11 0.51 0.13
7 12 0.28 0.12
7 13 0.69 0.11
7 14 0.14 0.14
7 15 0.79 0.2
7 16 0.14 0.14
7 17 0.06 0.06
7 18 0.04 0.04
7 19 0.21 0.21
8 9 0.52 0.34
8 10 0.25 0.25
8 11 0.5 0.21
8 12 0.16 0.16
8 13 0.34 0.19
8 14 0.61 0.06
8 15 0.72 0.2
8 16 0.14 0.14
8 17 0.58 0.14
8 18 0.24 0.24
8 19 0.3 0.3
9 10 0.27 0.27
9 11 0.56 0.37
9 12 0.6 0.23
9 13 0.7 0.35
9 14 0.3 0.28
9 15 0.15 0.15
9 16 0.21 0.21
9 17 0.24 0.24
9 18 0.71 0.28
9 19 0.2 0.2
10 11 0.39 0.17
10 12 0.2 0.2
10 13 0.21 0.15
10 14 0.52 0.26
10 15 0.52 0.12
10 16 0.18 0.18
10 17 0.42 0.27
10 18 0.54 0.17
10 19 0.74 0.22
11 12 0.6 0.17
11 13 0.02 0.02
11 14 0.27 0.27
11 15 0.25 0.25
11 16 0.19 0.19
11 17 0.74 0.19
11 18 0.58 0.09
11 19 0.3 0.3
12 13 0.43 0.15
12 14 0.1 0.1
12 15 0.64 0.08
12 16 0.56 0.02
12 17 0.18 0.18
12 18 0.55 0.08
12 19 0.56 0.18
13 14 0.25 0.25
13 15 0.23 0.23
13 16 0.17 0.17
13 17 0.63 0.17
13 18 0.07 0.07
13 19 0.66 0.28
14 15 0.46 0.14
14 16 0.08 0.08
14 17 0.45 0.08
14 18 0.8 0.18
14 19 0.24 0.24
15 16 0.31 0.06
15 17 0.22 0.22
15 18 0.16 0.16
15 19 0.1 0.1
16 17 0.66 0.16
16 18 0.66 0.1
16 19 0.58 0.16
17 18 0.1 0.1
17 19 0.26 0.26
18 19 0.21 0.21
